c colouring generated by benchmark framework
p edge 100 1470
v 1 1
v 2 8
v 3 5
v 4 7
v 5 10
v 6 4
v 7 11
v 8 12
v 9 3
v 10 6
v 11 4
v 12 10
v 13 3
v 14 12
v 15 5
v 16 6
v 17 9
v 18 2
v 19 1
v 20 7
v 21 3
v 22 6
v 23 9
v 24 1
v 25 4
v 26 2
v 27 7
v 28 0
v 29 10
v 30 5
v 31 12
v 32 7
v 33 11
v 34 2
v 35 0
v 36 1
v 37 3
v 38 5
v 39 8
v 40 9
v 41 11
v 42 2
v 43 10
v 44 5
v 45 6
v 46 9
v 47 8
v 48 1
v 49 0
v 50 3
v 51 9
v 52 1
v 53 8
v 54 0
v 55 7
v 56 3
v 57 2
v 58 6
v 59 4
v 60 11
v 61 7
v 62 3
v 63 12
v 64 10
v 65 1
v 66 0
v 67 4
v 68 11
v 69 2
v 70 8
v 71 6
v 72 9
v 73 2
v 74 4
v 75 3
v 76 8
v 77 1
v 78 7
v 79 5
v 80 10
v 81 8
v 82 4
v 83 0
v 84 6
v 85 2
v 86 7
v 87 5
v 88 3
v 89 11
v 90 12
v 91 5
v 92 11
v 93 7
v 94 3
v 95 8
v 96 10
v 97 6
v 98 4
v 99 9
v 100 0
